Results/Experiment 1 Results/New Benchmark/RES_20/output_p1_0.00_p2_0.00_n_20_19.txt
solutions: 72 nodes: 130  modelTime: 129  solveTime: 37  totalTime: 168  modelSize: 7358  readTime: 2 matchingSize: 10
